c description: Graph 5-Colorability of <cnfgen.graphs.Graph object at 0x1023bffa0>
c generator: CNFgen (0.9.5)
c copyright: (C) 2012-2026 Massimo Lauria <massimo.lauria@uniroma1.it>
c url: https://massimolauria.net/cnfgen
c random seed: 62
c command line: cnfgen --seed 62 kcolor 5 gnp 15 0.5
c
p cnf 75 455
1 2 3 4 5 0
6 7 8 9 10 0
11 12 13 14 15 0
16 17 18 19 20 0
21 22 23 24 25 0
26 27 28 29 30 0
31 32 33 34 35 0
36 37 38 39 40 0
41 42 43 44 45 0
46 47 48 49 50 0
51 52 53 54 55 0
56 57 58 59 60 0
61 62 63 64 65 0
66 67 68 69 70 0
71 72 73 74 75 0
-1 -2 0
-1 -3 0
-1 -4 0
-1 -5 0
-2 -3 0
-2 -4 0
-2 -5 0
-3 -4 0
-3 -5 0
-4 -5 0
-6 -7 0
-6 -8 0
-6 -9 0
-6 -10 0
-7 -8 0
-7 -9 0
-7 -10 0
-8 -9 0
-8 -10 0
-9 -10 0
-11 -12 0
-11 -13 0
-11 -14 0
-11 -15 0
-12 -13 0
-12 -14 0
-12 -15 0
-13 -14 0
-13 -15 0
-14 -15 0
-16 -17 0
-16 -18 0
-16 -19 0
-16 -20 0
-17 -18 0
-17 -19 0
-17 -20 0
-18 -19 0
-18 -20 0
-19 -20 0
-21 -22 0
-21 -23 0
-21 -24 0
-21 -25 0
-22 -23 0
-22 -24 0
-22 -25 0
-23 -24 0
-23 -25 0
-24 -25 0
-26 -27 0
-26 -28 0
-26 -29 0
-26 -30 0
-27 -28 0
-27 -29 0
-27 -30 0
-28 -29 0
-28 -30 0
-29 -30 0
-31 -32 0
-31 -33 0
-31 -34 0
-31 -35 0
-32 -33 0
-32 -34 0
-32 -35 0
-33 -34 0
-33 -35 0
-34 -35 0
-36 -37 0
-36 -38 0
-36 -39 0
-36 -40 0
-37 -38 0
-37 -39 0
-37 -40 0
-38 -39 0
-38 -40 0
-39 -40 0
-41 -42 0
-41 -43 0
-41 -44 0
-41 -45 0
-42 -43 0
-42 -44 0
-42 -45 0
-43 -44 0
-43 -45 0
-44 -45 0
-46 -47 0
-46 -48 0
-46 -49 0
-46 -50 0
-47 -48 0
-47 -49 0
-47 -50 0
-48 -49 0
-48 -50 0
-49 -50 0
-51 -52 0
-51 -53 0
-51 -54 0
-51 -55 0
-52 -53 0
-52 -54 0
-52 -55 0
-53 -54 0
-53 -55 0
-54 -55 0
-56 -57 0
-56 -58 0
-56 -59 0
-56 -60 0
-57 -58 0
-57 -59 0
-57 -60 0
-58 -59 0
-58 -60 0
-59 -60 0
-61 -62 0
-61 -63 0
-61 -64 0
-61 -65 0
-62 -63 0
-62 -64 0
-62 -65 0
-63 -64 0
-63 -65 0
-64 -65 0
-66 -67 0
-66 -68 0
-66 -69 0
-66 -70 0
-67 -68 0
-67 -69 0
-67 -70 0
-68 -69 0
-68 -70 0
-69 -70 0
-71 -72 0
-71 -73 0
-71 -74 0
-71 -75 0
-72 -73 0
-72 -74 0
-72 -75 0
-73 -74 0
-73 -75 0
-74 -75 0
-1 -11 0
-2 -12 0
-3 -13 0
-4 -14 0
-5 -15 0
-1 -26 0
-2 -27 0
-3 -28 0
-4 -29 0
-5 -30 0
-1 -36 0
-2 -37 0
-3 -38 0
-4 -39 0
-5 -40 0
-1 -41 0
-2 -42 0
-3 -43 0
-4 -44 0
-5 -45 0
-1 -56 0
-2 -57 0
-3 -58 0
-4 -59 0
-5 -60 0
-1 -61 0
-2 -62 0
-3 -63 0
-4 -64 0
-5 -65 0
-1 -66 0
-2 -67 0
-3 -68 0
-4 -69 0
-5 -70 0
-1 -71 0
-2 -72 0
-3 -73 0
-4 -74 0
-5 -75 0
-6 -11 0
-7 -12 0
-8 -13 0
-9 -14 0
-10 -15 0
-6 -21 0
-7 -22 0
-8 -23 0
-9 -24 0
-10 -25 0
-6 -26 0
-7 -27 0
-8 -28 0
-9 -29 0
-10 -30 0
-6 -31 0
-7 -32 0
-8 -33 0
-9 -34 0
-10 -35 0
-11 -26 0
-12 -27 0
-13 -28 0
-14 -29 0
-15 -30 0
-11 -31 0
-12 -32 0
-13 -33 0
-14 -34 0
-15 -35 0
-11 -36 0
-12 -37 0
-13 -38 0
-14 -39 0
-15 -40 0
-11 -41 0
-12 -42 0
-13 -43 0
-14 -44 0
-15 -45 0
-11 -56 0
-12 -57 0
-13 -58 0
-14 -59 0
-15 -60 0
-11 -61 0
-12 -62 0
-13 -63 0
-14 -64 0
-15 -65 0
-11 -66 0
-12 -67 0
-13 -68 0
-14 -69 0
-15 -70 0
-16 -21 0
-17 -22 0
-18 -23 0
-19 -24 0
-20 -25 0
-16 -26 0
-17 -27 0
-18 -28 0
-19 -29 0
-20 -30 0
-16 -36 0
-17 -37 0
-18 -38 0
-19 -39 0
-20 -40 0
-16 -41 0
-17 -42 0
-18 -43 0
-19 -44 0
-20 -45 0
-16 -46 0
-17 -47 0
-18 -48 0
-19 -49 0
-20 -50 0
-16 -51 0
-17 -52 0
-18 -53 0
-19 -54 0
-20 -55 0
-16 -56 0
-17 -57 0
-18 -58 0
-19 -59 0
-20 -60 0
-16 -61 0
-17 -62 0
-18 -63 0
-19 -64 0
-20 -65 0
-16 -66 0
-17 -67 0
-18 -68 0
-19 -69 0
-20 -70 0
-16 -71 0
-17 -72 0
-18 -73 0
-19 -74 0
-20 -75 0
-21 -56 0
-22 -57 0
-23 -58 0
-24 -59 0
-25 -60 0
-21 -61 0
-22 -62 0
-23 -63 0
-24 -64 0
-25 -65 0
-21 -71 0
-22 -72 0
-23 -73 0
-24 -74 0
-25 -75 0
-26 -31 0
-27 -32 0
-28 -33 0
-29 -34 0
-30 -35 0
-26 -41 0
-27 -42 0
-28 -43 0
-29 -44 0
-30 -45 0
-26 -46 0
-27 -47 0
-28 -48 0
-29 -49 0
-30 -50 0
-26 -51 0
-27 -52 0
-28 -53 0
-29 -54 0
-30 -55 0
-26 -71 0
-27 -72 0
-28 -73 0
-29 -74 0
-30 -75 0
-31 -41 0
-32 -42 0
-33 -43 0
-34 -44 0
-35 -45 0
-31 -46 0
-32 -47 0
-33 -48 0
-34 -49 0
-35 -50 0
-31 -51 0
-32 -52 0
-33 -53 0
-34 -54 0
-35 -55 0
-31 -56 0
-32 -57 0
-33 -58 0
-34 -59 0
-35 -60 0
-31 -61 0
-32 -62 0
-33 -63 0
-34 -64 0
-35 -65 0
-31 -66 0
-32 -67 0
-33 -68 0
-34 -69 0
-35 -70 0
-36 -46 0
-37 -47 0
-38 -48 0
-39 -49 0
-40 -50 0
-36 -51 0
-37 -52 0
-38 -53 0
-39 -54 0
-40 -55 0
-36 -56 0
-37 -57 0
-38 -58 0
-39 -59 0
-40 -60 0
-36 -66 0
-37 -67 0
-38 -68 0
-39 -69 0
-40 -70 0
-41 -46 0
-42 -47 0
-43 -48 0
-44 -49 0
-45 -50 0
-41 -56 0
-42 -57 0
-43 -58 0
-44 -59 0
-45 -60 0
-41 -61 0
-42 -62 0
-43 -63 0
-44 -64 0
-45 -65 0
-41 -66 0
-42 -67 0
-43 -68 0
-44 -69 0
-45 -70 0
-41 -71 0
-42 -72 0
-43 -73 0
-44 -74 0
-45 -75 0
-46 -71 0
-47 -72 0
-48 -73 0
-49 -74 0
-50 -75 0
-51 -66 0
-52 -67 0
-53 -68 0
-54 -69 0
-55 -70 0
-51 -71 0
-52 -72 0
-53 -73 0
-54 -74 0
-55 -75 0
-56 -71 0
-57 -72 0
-58 -73 0
-59 -74 0
-60 -75 0
-61 -66 0
-62 -67 0
-63 -68 0
-64 -69 0
-65 -70 0
-66 -71 0
-67 -72 0
-68 -73 0
-69 -74 0
-70 -75 0
